7471
785
4386
4374
4934
4098
3993
2764
1147
1268
625
3704
2201
2037
6665
8118
9945
9478
5320
4778
2031
6172
1520
5707
9047
4366
5595
3048
665
2378
4057
1627
6196
7812
515
9598
1772
9177
5738
9724
8562
4146
8456
9524
3751
7939
7640
6419
6032
5354
